(declare-const delta_j Int)
(declare-const delta_k Int)
(declare-const delta_w Real)
(declare-const delta_i Int)
(assert (exists
         ((|k'?1| Int) (|w'?2| Real) (|S1,0?3| Real) (|j'?4| Int)
            (KSUM1?5 Int) (|K1,0?6| Int) (K?7 Int) (|k'?8| Int) (|w'?9| Real)
            (|S1,0?10| Real) (|j'?11| Int) (KSUM1?12 Int) (|K1,0?13| Int)
            (K?14 Int) (|k'?15| Int) (|i'?16| Int) (|w'?17| Real)
            (|j'?18| Int) (w?19 Real) (k?20 Int) (j?21 Int) (n?22 Int)
            (i?23 Int))
         (and (<= (- i?23) 0) (< (+ (- n?22) i?23) 0) (<= (- K?14) 0)
                (<= (- |K1,0?13|) 0) (= (+ |K1,0?13| (- K?14)) 0)
                (<= (+ KSUM1?12 (- K?14)) 0)
                (= (+ (- |S1,0?10|) |j'?11| (- |K1,0?13|)) 0)
                (= (+ (- KSUM1?12) |K1,0?13|) 0)
                (= (+ |S1,0?10| (- i?23) -1) 0)
                (or (and (= K?14 0) (= (+ (- |w'?9|) w?19) 0)
                           (= (+ (- |k'?8|) k?20) 0)
                           (= (+ (- |j'?11|) i?23 1) 0))
                      (and (<= (+ (- K?14) 1) 0) (<= (+ (- n?22) i?23 1) 0)
                             (<= (- i?23) 0) (<= (- i?23) 0)
                             (= (+ (- |k'?8|) i?23) 0)
                             (<= (+ |j'?11| (- n?22) -1) 0)
                             (<= (+ (- |j'?11|) 2) 0) (<= (- |k'?8|) 0)))
                (= (+ |j'?11| (- K?14) (- i?23) -1) 0) (<= (- K?14) 0)
                (< (- |j'?11|) 0) (< (- n?22) 0) (<= (- i?23) 0)
                (< (+ (- |j'?11|) n?22) 0) (<= (- K?7) 0) (<= (- |K1,0?6|) 0)
                (= (+ |K1,0?6| (- K?7)) 0) (<= (+ KSUM1?5 (- K?7)) 0)
                (= (+ (- |S1,0?3|) |j'?4| (- |K1,0?6|)) 0)
                (= (+ (- KSUM1?5) |K1,0?6|) 0) (= (+ |S1,0?3| (- i?23) -1) 0)
                (or (and (= K?7 0) (= (+ (- |w'?2|) |w'?9|) 0)
                           (= (+ (- |k'?1|) |k'?8|) 0)
                           (= (+ (- |j'?4|) i?23 1) 0))
                      (and (<= (+ (- K?7) 1) 0) (<= (+ (- n?22) i?23 1) 0)
                             (<= (- i?23) 0) (<= (- i?23) 0)
                             (= (+ |k'?1| (- i?23) -1) 0)
                             (<= (+ |j'?4| (- n?22) -1) 0)
                             (<= (+ (- |j'?4|) 2) 0) (<= (- i?23) 0)))
                (= (+ |j'?4| (- K?7) (- i?23) -1) 0) (<= (- K?7) 0)
                (< (- |j'?4|) 0) (< (- n?22) 0) (<= (- i?23) 0)
                (< (+ (- |j'?4|) n?22) 0) (= (+ |w'?17| (- |w'?2|)) 0)
                (= (+ |k'?15| (- |k'?1|)) 0) (= (+ |j'?18| (- |j'?4|)) 0)
                (= (+ |i'?16| (- i?23) -1) 0)
                (= delta_i (+ |i'?16| (- i?23)))
                (= delta_j (+ |j'?18| (- j?21)))
                (= delta_k (+ |k'?15| (- k?20)))
                (= delta_w (+ |w'?17| (- w?19))))))
(check-sat)
